(set-logic QF_LIA)
(declare-fun x0 () Int)
(declare-fun x1 () Int)
(declare-fun x2 () Int)
(declare-fun x3 () Int)
(declare-fun x4 () Int)
(declare-fun x5 () Int)
(declare-fun x6 () Int)
(declare-fun x7 () Int)
(declare-fun x8 () Int)
(declare-fun x9 () Int)
(declare-fun A0 () Bool)
(declare-fun A1 () Bool)
(declare-fun A2 () Bool)
(declare-fun A3 () Bool)
(declare-fun A4 () Bool)
(declare-fun A5 () Bool)
(declare-fun A6 () Bool)
(declare-fun A7 () Bool)
(declare-fun A8 () Bool)
(declare-fun A9 () Bool)
(assert (let ((.def_0 (* 1 x6))) (let ((.def_1 (* 1 x7))) (let ((.def_2 (+ .def_1 .def_0))) (let ((.def_3 (< .def_2 1))) (let ((.def_4 (not A3))) (let ((.def_5 (or .def_4 .def_3))) (let ((.def_6 (not .def_5))) (let ((.def_7 (not A4))) (let ((.def_8 (and .def_7 .def_4))) (let ((.def_9 (not .def_8))) (let ((.def_10 (= .def_9 .def_6))) (let ((.def_11 (or A6 A0))) (let ((.def_12 (not .def_11))) (let ((.def_13 (< .def_1 1))) (let ((.def_14 (not .def_13))) (let ((.def_15 (or .def_14 A1))) (let ((.def_16 (not .def_15))) (let ((.def_17 (or .def_16 .def_12))) (let ((.def_18 (not .def_17))) (let ((.def_19 (and .def_18 .def_10))) (let ((.def_20 (not .def_19))) (let ((.def_21 (* (- 1) x5))) (let ((.def_22 (* 1 x9))) (let ((.def_23 (+ .def_22 .def_21))) (let ((.def_24 (< .def_23 1))) (let ((.def_25 (* (- 1) x6))) (let ((.def_26 (< .def_25 (- 1)))) (let ((.def_27 (not .def_26))) (let ((.def_28 (or .def_27 .def_24))) (let ((.def_29 (not .def_28))) (let ((.def_30 (* 1 x0))) (let ((.def_31 (< .def_30 1))) (let ((.def_32 (or .def_4 .def_31))) (let ((.def_33 (not .def_32))) (let ((.def_34 (= .def_33 .def_29))) (let ((.def_35 (not .def_34))) (let ((.def_36 (* (- 1) x0))) (let ((.def_37 (* 1 x4))) (let ((.def_38 (+ .def_37 .def_36))) (let ((.def_39 (< .def_38 1))) (let ((.def_40 (and A0 .def_39))) (let ((.def_41 (* (- 1) x3))) (let ((.def_42 (< .def_41 (- 1)))) (let ((.def_43 (and .def_42 A0))) (let ((.def_44 (and .def_43 .def_40))) (let ((.def_45 (or .def_44 .def_35))) (let ((.def_46 (not .def_45))) (let ((.def_47 (and .def_46 .def_20))) (let ((.def_48 (not .def_47))) (let ((.def_49 (< .def_36 (- 1)))) (let ((.def_50 (not .def_49))) (let ((.def_51 (and A8 .def_50))) (let ((.def_52 (* 1 x1))) (let ((.def_53 (< .def_52 1))) (let ((.def_54 (* (- 1) x2))) (let ((.def_55 (* (- 1) x8))) (let ((.def_56 (+ .def_55 .def_54))) (let ((.def_57 (< .def_56 1))) (let ((.def_58 (not .def_57))) (let ((.def_59 (or .def_58 .def_53))) (let ((.def_60 (and .def_59 .def_51))) (let ((.def_61 (* (- 1) x9))) (let ((.def_62 (+ .def_61 .def_52))) (let ((.def_63 (< .def_62 (- 1)))) (let ((.def_64 (not .def_63))) (let ((.def_65 (* (- 1) x4))) (let ((.def_66 (+ .def_65 .def_52))) (let ((.def_67 (< .def_66 (- 1)))) (let ((.def_68 (not .def_67))) (let ((.def_69 (and .def_68 .def_64))) (let ((.def_70 (or A9 A6))) (let ((.def_71 (and .def_70 .def_69))) (let ((.def_72 (or .def_71 .def_60))) (let ((.def_73 (+ .def_52 .def_25))) (let ((.def_74 (< .def_73 1))) (let ((.def_75 (not .def_74))) (let ((.def_76 (+ .def_65 .def_41))) (let ((.def_77 (< .def_76 (- 1)))) (let ((.def_78 (not .def_77))) (let ((.def_79 (or .def_78 .def_75))) (let ((.def_80 (not A7))) (let ((.def_81 (and .def_80 A4))) (let ((.def_82 (or .def_81 .def_79))) (let ((.def_83 (not .def_82))) (let ((.def_84 (not A2))) (let ((.def_85 (and .def_84 .def_7))) (let ((.def_86 (not .def_85))) (let ((.def_87 (* 1 x8))) (let ((.def_88 (+ .def_87 .def_21))) (let ((.def_89 (< .def_88 1))) (let ((.def_90 (and A4 .def_89))) (let ((.def_91 (not .def_90))) (let ((.def_92 (or .def_91 .def_86))) (let ((.def_93 (not .def_92))) (let ((.def_94 (or .def_93 .def_83))) (let ((.def_95 (not .def_94))) (let ((.def_96 (= .def_95 .def_72))) (let ((.def_97 (or .def_96 .def_48))) (let ((.def_98 (not .def_97))) (let ((.def_99 (< .def_55 1))) (let ((.def_100 (not .def_99))) (let ((.def_101 (< .def_65 (- 1)))) (let ((.def_102 (not .def_101))) (let ((.def_103 (or .def_102 .def_100))) (let ((.def_104 (not .def_103))) (let ((.def_105 (+ .def_87 .def_1))) (let ((.def_106 (< .def_105 1))) (let ((.def_107 (< .def_21 1))) (let ((.def_108 (and .def_107 .def_106))) (let ((.def_109 (and .def_108 .def_104))) (let ((.def_110 (not .def_109))) (let ((.def_111 (or A1 A2))) (let ((.def_112 (not .def_111))) (let ((.def_113 (< .def_61 (- 1)))) (let ((.def_114 (* (- 1) x7))) (let ((.def_115 (+ .def_21 .def_114))) (let ((.def_116 (< .def_115 (- 1)))) (let ((.def_117 (= .def_116 .def_113))) (let ((.def_118 (not .def_117))) (let ((.def_119 (and .def_118 .def_112))) (let ((.def_120 (not .def_119))) (let ((.def_121 (and .def_120 .def_110))) (let ((.def_122 (not .def_121))) (let ((.def_123 (not A8))) (let ((.def_124 (or A2 .def_123))) (let ((.def_125 (not .def_124))) (let ((.def_126 (not A6))) (let ((.def_127 (* (- 1) x1))) (let ((.def_128 (+ .def_127 .def_0))) (let ((.def_129 (< .def_128 1))) (let ((.def_130 (not .def_129))) (let ((.def_131 (or .def_130 .def_126))) (let ((.def_132 (not .def_131))) (let ((.def_133 (or .def_132 .def_125))) (let ((.def_134 (not .def_133))) (let ((.def_135 (* 1 x3))) (let ((.def_136 (< .def_135 1))) (let ((.def_137 (and .def_136 .def_4))) (let ((.def_138 (+ .def_36 .def_54))) (let ((.def_139 (< .def_138 (- 1)))) (let ((.def_140 (or A7 .def_139))) (let ((.def_141 (or .def_140 .def_137))) (let ((.def_142 (or .def_141 .def_134))) (let ((.def_143 (= .def_142 .def_122))) (let ((.def_144 (not .def_143))) (let ((.def_145 (not A0))) (let ((.def_146 (or .def_145 A6))) (let ((.def_147 (< .def_25 1))) (let ((.def_148 (not .def_147))) (let ((.def_149 (not A1))) (let ((.def_150 (or .def_149 .def_148))) (let ((.def_151 (not .def_150))) (let ((.def_152 (= .def_151 .def_146))) (let ((.def_153 (not .def_152))) (let ((.def_154 (not A5))) (let ((.def_155 (and .def_154 .def_123))) (let ((.def_156 (not .def_155))) (let ((.def_157 (+ .def_37 .def_127))) (let ((.def_158 (< .def_157 (- 1)))) (let ((.def_159 (not .def_158))) (let ((.def_160 (< .def_135 (- 1)))) (let ((.def_161 (and .def_160 .def_159))) (let ((.def_162 (and .def_161 .def_156))) (let ((.def_163 (not .def_162))) (let ((.def_164 (and .def_163 .def_153))) (let ((.def_165 (+ .def_1 .def_25))) (let ((.def_166 (< .def_165 1))) (let ((.def_167 (or .def_166 A9))) (let ((.def_168 (not .def_167))) (let ((.def_169 (or A6 .def_149))) (let ((.def_170 (and .def_169 .def_168))) (let ((.def_171 (< .def_22 (- 1)))) (let ((.def_172 (not .def_171))) (let ((.def_173 (+ .def_0 .def_52))) (let ((.def_174 (< .def_173 (- 1)))) (let ((.def_175 (not .def_174))) (let ((.def_176 (or .def_175 .def_172))) (let ((.def_177 (+ .def_87 .def_30))) (let ((.def_178 (< .def_177 1))) (let ((.def_179 (or A6 .def_178))) (let ((.def_180 (not .def_179))) (let ((.def_181 (and .def_180 .def_176))) (let ((.def_182 (not .def_181))) (let ((.def_183 (or .def_182 .def_170))) (let ((.def_184 (not .def_183))) (let ((.def_185 (= .def_184 .def_164))) (let ((.def_186 (or .def_185 .def_144))) (let ((.def_187 (not .def_186))) (let ((.def_188 (or .def_187 .def_98))) (let ((.def_189 (<= x9 1))) (let ((.def_190 (<= 0 x9))) (let ((.def_191 (<= x8 1))) (let ((.def_192 (<= 0 x8))) (let ((.def_193 (<= x7 1))) (let ((.def_194 (<= 0 x7))) (let ((.def_195 (<= x6 1))) (let ((.def_196 (<= 0 x6))) (let ((.def_197 (<= x5 1))) (let ((.def_198 (<= 0 x5))) (let ((.def_199 (<= x4 1))) (let ((.def_200 (<= 0 x4))) (let ((.def_201 (<= x3 1))) (let ((.def_202 (<= 0 x3))) (let ((.def_203 (<= x2 1))) (let ((.def_204 (<= 0 x2))) (let ((.def_205 (<= x1 1))) (let ((.def_206 (<= 0 x1))) (let ((.def_207 (<= x0 1))) (let ((.def_208 (<= 0 x0))) (let ((.def_209 (and .def_208 .def_207 .def_206 .def_205 .def_204 .def_203 .def_202 .def_201 .def_200 .def_199 .def_198 .def_197 .def_196 .def_195 .def_194 .def_193 .def_192 .def_191 .def_190 .def_189 .def_188))) .def_209)))))))))))))))))))))))))))))))))))))))))))))))))))))))))))))))))))))))))))))))))))))))))))))))))))))))))))))))))))))))))))))))))))))))))))))))))))))))))))))))))))))))))))))))))))))))))))))))))))))))))))))))))))
(check-sat)
